sat
(
  (define-fun G () String
    "aababaaabaa")
  (define-fun J () String
    "")
  (define-fun F () String
    "aababaaabaa")
  (define-fun L () String
    "baa")
  (define-fun H () String
    "")
  (define-fun M () String
    "b")
)
